#######################



#######################
Set parameter TimeLimit to value 300
Set parameter SoftMemLimit to value 125
Set parameter MIPFocus to value 2
Set parameter LogFile to value 1003-MIPFocus2-Presolve2-TimeLimit300-k16x240-8.log
Set parameter Presolve to value 2
Set parameter Seed to value 8
Using license file /opt/gurobi/gurobi.lic

Gurobi Optimizer version 10.0.3 build v10.0.3rc0 (linux64)
Copyright (c) 2023, Gurobi Optimization, LLC

Read MPS format model from file /miplib2010/k16x240.mps.bz2
Reading time = 0.00 seconds
k16x240: 256 rows, 480 columns, 960 nonzeros

CPU model: Intel(R) Xeon(R) E-2388G CPU @ 3.20GHz, instruction set [SSE2|AVX|AVX2|AVX512]
Thread count: 8 physical cores, 16 logical processors, using up to 16 threads

Optimize a model with 256 rows, 480 columns and 960 nonzeros
Model fingerprint: 0x4e80885f
Variable types: 240 continuous, 240 integer (240 binary)
Coefficient statistics:
  Matrix range     [1e+00, 1e+03]
  Objective range  [1e+00, 1e+03]
  Bounds range     [1e+00, 1e+03]
  RHS range        [4e+00, 4e+02]
Found heuristic solution: objective 27117.000000
Presolve time: 0.00s
Presolved: 256 rows, 480 columns, 960 nonzeros
Variable types: 240 continuous, 240 integer (240 binary)
Root relaxation presolve removed 241 rows and 240 columns
Root relaxation presolved: 15 rows, 240 columns, 450 nonzeros


Root relaxation: objective 2.769838e+03, 16 iterations, 0.00 seconds (0.00 work units)

    Nodes    |    Current Node    |     Objective Bounds      |     Work
 Expl Unexpl |  Obj  Depth IntInf | Incumbent    BestBd   Gap | It/Node Time

     0     0 2769.83800    0   14 27117.0000 2769.83800  89.8%     -    0s
H    0     0                    11359.000000 2769.83800  75.6%     -    0s
H    0     0                    11151.000000 8116.87580  27.2%     -    0s
     0     0 8116.87580    0   26 11151.0000 8116.87580  27.2%     -    0s
H    0     0                    10746.000000 8116.87580  24.5%     -    0s
     0     0 8588.30479    0   25 10746.0000 8588.30479  20.1%     -    0s
     0     0 8613.92228    0   22 10746.0000 8613.92228  19.8%     -    0s
     0     0 8718.82487    0   23 10746.0000 8718.82487  18.9%     -    0s
     0     0 8841.12692    0   38 10746.0000 8841.12692  17.7%     -    0s
     0     0 8841.41581    0   38 10746.0000 8841.41581  17.7%     -    0s
     0     0 8977.88014    0   36 10746.0000 8977.88014  16.5%     -    0s
     0     0 9009.85346    0   37 10746.0000 9009.85346  16.2%     -    0s
     0     0 9089.00512    0   28 10746.0000 9089.00512  15.4%     -    0s
     0     0 9093.38768    0   29 10746.0000 9093.38768  15.4%     -    0s
     0     0 9122.81172    0   38 10746.0000 9122.81172  15.1%     -    0s
H    0     0                    10678.000000 9122.81172  14.6%     -    0s
     0     0 9122.81172    0   38 10678.0000 9122.81172  14.6%     -    0s
     0     2 9122.81172    0   38 10678.0000 9122.81172  14.6%     -    0s
H   76    80                    10674.000000 9193.82991  13.9%  42.5    0s
 25522 10785     cutoff   30      10674.0000 9960.96465  6.68%  23.5    5s
 65329 19131 10635.0725   28   25 10674.0000 10154.4877  4.87%  24.2   10s
 109564 20659 10430.7050   36    8 10674.0000 10296.9431  3.53%  24.6   15s
 148291 15815 10634.0577   25   15 10674.0000 10410.8556  2.47%  24.6   20s

Cutting planes:
  Gomory: 1
  Lift-and-project: 10
  Cover: 94
  Implied bound: 18
  MIR: 175
  Flow cover: 269
  Flow path: 55
  Inf proof: 5
  Zero half: 8
  Network: 46
  Relax-and-lift: 3

Explored 183901 nodes (4380981 simplex iterations) in 24.02 seconds (38.97 work units)
Thread count was 16 (of 16 available processors)

Solution count 6: 10674 10678 10746 ... 27117

Optimal solution found (tolerance 1.00e-04)
Best objective 1.067400000000e+04, best bound 1.067400000000e+04, gap 0.0000%
